gen cost
0 1458
1 1417
2 1417
3 1409
4 1381
5 1381
6 1371
7 1350
8 1334
9 1326
10 1310
11 1303
12 1279
13 1248
14 1248
15 1247
16 1241
17 1226
18 1218
19 1197
20 1189
21 1189
22 1189
23 1189
24 1185
25 1177
26 1175
27 1161
28 1161
29 1155
30 1153
31 1153
32 1153
33 1152
34 1149
35 1147
36 1140
37 1137
38 1137
39 1131
40 1129
41 1129
42 1126
43 1126
44 1123
45 1120
46 1120
47 1120
48 1120
49 1119
